c Arquivo convertido de bcsstk20.mtx
p edge 485 1325
e 1 3
e 1 4
e 1 6
e 2 5
e 3 4
e 3 6
e 4 6
e 4 7
e 4 9
e 5 8
e 6 7
e 6 9
e 7 9
e 7 10
e 7 12
e 8 11
e 9 10
e 9 12
e 10 12
e 10 13
e 10 15
e 11 14
e 12 13
e 12 15
e 13 15
e 13 16
e 13 18
e 14 17
e 15 16
e 15 18
e 16 18
e 16 19
e 16 21
e 17 20
e 18 19
e 18 21
e 19 21
e 19 22
e 19 24
e 20 23
e 21 22
e 21 24
e 22 24
e 22 25
e 22 27
e 23 26
e 24 25
e 24 27
e 25 27
e 25 28
e 25 30
e 26 29
e 27 28
e 27 30
e 28 30
e 28 31
e 28 33
e 29 32
e 30 31
e 30 33
e 31 33
e 31 34
e 31 36
e 32 35
e 33 34
e 33 36
e 34 36
e 34 37
e 34 39
e 35 38
e 36 37
e 36 39
e 37 39
e 37 40
e 37 42
e 38 41
e 39 40
e 39 42
e 40 42
e 40 43
e 40 45
e 41 44
e 42 43
e 42 45
e 43 45
e 43 46
e 43 48
e 44 47
e 45 46
e 45 48
e 46 48
e 46 49
e 46 51
e 47 50
e 48 49
e 48 51
e 49 51
e 49 52
e 49 54
e 50 53
e 51 52
e 51 54
e 52 54
e 52 55
e 52 57
e 53 56
e 54 55
e 54 57
e 55 57
e 55 58
e 55 60
e 56 59
e 57 58
e 57 60
e 58 60
e 58 61
e 58 63
e 59 62
e 60 61
e 60 63
e 61 63
e 61 64
e 61 66
e 62 65
e 63 64
e 63 66
e 64 66
e 64 67
e 64 69
e 65 68
e 66 67
e 66 69
e 67 69
e 67 70
e 67 72
e 68 71
e 69 70
e 69 72
e 70 72
e 70 73
e 70 75
e 71 74
e 72 73
e 72 75
e 73 75
e 73 76
e 73 78
e 74 77
e 75 76
e 75 78
e 76 78
e 76 79
e 76 81
e 77 80
e 78 79
e 78 81
e 79 81
e 79 82
e 79 84
e 80 83
e 81 82
e 81 84
e 82 84
e 82 85
e 82 87
e 83 86
e 84 85
e 84 87
e 85 87
e 85 88
e 85 90
e 86 89
e 87 88
e 87 90
e 88 90
e 88 91
e 88 93
e 89 92
e 90 91
e 90 93
e 91 93
e 91 94
e 91 96
e 92 95
e 93 94
e 93 96
e 94 96
e 94 97
e 94 99
e 95 98
e 96 97
e 96 99
e 97 99
e 97 100
e 97 102
e 98 101
e 99 100
e 99 102
e 100 102
e 100 103
e 100 105
e 101 104
e 102 103
e 102 105
e 103 105
e 103 106
e 103 108
e 104 107
e 105 106
e 105 108
e 106 108
e 106 109
e 106 111
e 107 110
e 108 109
e 108 111
e 109 110
e 109 111
e 109 112
e 109 113
e 109 114
e 109 115
e 110 111
e 110 112
e 110 113
e 110 114
e 110 116
e 110 117
e 111 112
e 111 113
e 111 114
e 111 116
e 111 117
e 112 113
e 112 114
e 112 118
e 112 119
e 112 120
e 113 114
e 113 118
e 113 119
e 113 120
e 114 118
e 114 119
e 114 120
e 115 121
e 116 117
e 116 122
e 116 123
e 117 122
e 117 123
e 118 119
e 118 120
e 118 124
e 118 125
e 118 126
e 119 120
e 119 124
e 119 125
e 119 126
e 120 124
e 120 125
e 120 126
e 121 127
e 122 123
e 122 128
e 122 129
e 123 128
e 123 129
e 124 125
e 124 126
e 124 130
e 124 131
e 124 132
e 125 126
e 125 130
e 125 131
e 125 132
e 126 130
e 126 131
e 126 132
e 127 133
e 128 129
e 128 134
e 128 135
e 129 134
e 129 135
e 130 131
e 130 132
e 130 136
e 130 137
e 130 138
e 131 132
e 131 136
e 131 137
e 131 138
e 132 136
e 132 137
e 132 138
e 133 139
e 134 135
e 134 140
e 134 141
e 135 140
e 135 141
e 136 137
e 136 138
e 136 142
e 136 143
e 136 144
e 137 138
e 137 142
e 137 143
e 137 144
e 138 142
e 138 143
e 138 144
e 139 145
e 140 141
e 140 146
e 140 147
e 141 146
e 141 147
e 142 143
e 142 144
e 142 148
e 142 149
e 142 150
e 143 144
e 143 148
e 143 149
e 143 150
e 144 148
e 144 149
e 144 150
e 145 146
e 145 147
e 145 151
e 145 153
e 145 154
e 145 155
e 145 156
e 146 147
e 146 152
e 146 154
e 146 155
e 146 156
e 147 151
e 147 153
e 147 154
e 147 155
e 147 156
e 148 149
e 148 150
e 148 157
e 148 158
e 148 159
e 149 150
e 149 157
e 149 158
e 149 159
e 150 157
e 150 158
e 150 159
e 151 153
e 151 160
e 151 162
e 152 161
e 153 160
e 153 162
e 154 155
e 154 156
e 154 163
e 154 164
e 154 165
e 155 156
e 155 163
e 155 164
e 155 165
e 156 163
e 156 164
e 156 165
e 157 158
e 157 159
e 157 166
e 157 167
e 157 168
e 158 159
e 158 166
e 158 167
e 158 168
e 159 166
e 159 167
e 159 168
e 160 162
e 160 169
e 160 171
e 161 170
e 162 169
e 162 171
e 163 164
e 163 165
e 163 172
e 163 173
e 163 174
e 164 165
e 164 172
e 164 173
e 164 174
e 165 172
e 165 173
e 165 174
e 166 167
e 166 168
e 166 175
e 166 176
e 166 177
e 167 168
e 167 175
e 167 176
e 167 177
e 168 175
e 168 176
e 168 177
e 169 171
e 169 178
e 169 180
e 170 179
e 171 178
e 171 180
e 172 173
e 172 174
e 172 181
e 172 182
e 172 183
e 173 174
e 173 181
e 173 182
e 173 183
e 174 181
e 174 182
e 174 183
e 175 176
e 175 177
e 175 184
e 175 185
e 175 186
e 176 177
e 176 184
e 176 185
e 176 186
e 177 184
e 177 185
e 177 186
e 178 180
e 178 187
e 178 189
e 179 188
e 180 187
e 180 189
e 181 182
e 181 183
e 181 190
e 181 191
e 181 192
e 182 183
e 182 190
e 182 191
e 182 192
e 183 190
e 183 191
e 183 192
e 184 185
e 184 186
e 184 193
e 184 194
e 184 195
e 184 196
e 185 186
e 185 193
e 185 194
e 185 195
e 185 197
e 185 198
e 186 193
e 186 194
e 186 195
e 186 197
e 186 198
e 187 189
e 187 199
e 187 201
e 188 200
e 189 199
e 189 201
e 190 191
e 190 192
e 190 202
e 190 203
e 190 204
e 191 192
e 191 202
e 191 203
e 191 204
e 192 202
e 192 203
e 192 204
e 193 194
e 193 195
e 193 205
e 193 206
e 193 207
e 194 195
e 194 205
e 194 206
e 194 207
e 195 205
e 195 206
e 195 207
e 196 208
e 197 198
e 197 209
e 197 210
e 198 209
e 198 210
e 199 201
e 199 211
e 199 213
e 200 212
e 201 211
e 201 213
e 202 203
e 202 204
e 202 214
e 202 215
e 202 216
e 203 204
e 203 214
e 203 215
e 203 216
e 204 214
e 204 215
e 204 216
e 205 206
e 205 207
e 205 217
e 205 218
e 205 219
e 206 207
e 206 217
e 206 218
e 206 219
e 207 217
e 207 218
e 207 219
e 208 210
e 208 220
e 208 222
e 208 223
e 209 210
e 209 221
e 209 224
e 209 225
e 210 220
e 210 222
e 210 224
e 210 225
e 211 213
e 211 226
e 211 228
e 212 227
e 213 226
e 213 228
e 214 215
e 214 216
e 214 229
e 214 230
e 214 231
e 215 216
e 215 229
e 215 230
e 215 231
e 216 229
e 216 230
e 216 231
e 217 218
e 217 219
e 217 232
e 217 233
e 217 234
e 218 219
e 218 232
e 218 233
e 218 234
e 219 232
e 219 233
e 219 234
e 220 222
e 223 225
e 223 235
e 223 237
e 223 238
e 224 225
e 224 236
e 224 239
e 224 240
e 225 235
e 225 237
e 225 239
e 225 240
e 226 228
e 226 241
e 226 243
e 227 242
e 228 241
e 228 243
e 229 230
e 229 231
e 229 244
e 229 245
e 229 246
e 230 231
e 230 244
e 230 245
e 230 246
e 231 244
e 231 245
e 231 246
e 232 233
e 232 234
e 232 247
e 232 248
e 232 249
e 233 234
e 233 247
e 233 248
e 233 249
e 234 247
e 234 248
e 234 249
e 235 237
e 238 250
e 239 240
e 239 251
e 239 252
e 240 251
e 240 252
e 241 243
e 241 253
e 241 255
e 242 254
e 243 253
e 243 255
e 244 245
e 244 246
e 244 256
e 244 257
e 244 258
e 245 246
e 245 256
e 245 257
e 245 258
e 246 256
e 246 257
e 246 258
e 247 248
e 247 249
e 247 259
e 247 260
e 247 261
e 248 249
e 248 259
e 248 260
e 248 261
e 249 259
e 249 260
e 249 261
e 250 262
e 251 263
e 251 264
e 252 263
e 252 264
e 253 255
e 253 265
e 253 267
e 254 266
e 255 265
e 255 267
e 256 257
e 256 258
e 256 268
e 256 269
e 256 270
e 257 258
e 257 268
e 257 269
e 257 270
e 258 268
e 258 269
e 258 270
e 259 260
e 259 261
e 259 271
e 259 272
e 259 273
e 260 261
e 260 271
e 260 272
e 260 273
e 261 271
e 261 272
e 261 273
e 262 274
e 263 264
e 263 275
e 263 276
e 264 275
e 264 276
e 265 267
e 265 277
e 265 279
e 266 278
e 267 277
e 267 279
e 268 269
e 268 270
e 268 280
e 268 281
e 268 282
e 268 283
e 269 270
e 269 280
e 269 281
e 269 282
e 269 284
e 269 285
e 270 280
e 270 281
e 270 282
e 270 284
e 270 285
e 271 272
e 271 273
e 271 286
e 271 287
e 271 288
e 272 273
e 272 286
e 272 287
e 272 288
e 273 286
e 273 287
e 273 288
e 274 276
e 274 289
e 274 291
e 274 292
e 275 276
e 275 290
e 275 293
e 275 294
e 276 289
e 276 291
e 276 293
e 276 294
e 277 279
e 277 295
e 277 297
e 278 296
e 279 295
e 279 297
e 280 281
e 280 282
e 280 298
e 280 299
e 280 300
e 281 282
e 281 298
e 281 299
e 281 300
e 282 298
e 282 299
e 282 300
e 283 292
e 284 285
e 284 293
e 284 294
e 285 293
e 285 294
e 286 287
e 286 288
e 286 301
e 286 302
e 286 303
e 287 288
e 287 301
e 287 302
e 287 303
e 288 301
e 288 302
e 288 303
e 289 291
e 292 294
e 292 304
e 292 306
e 293 294
e 293 305
e 294 304
e 294 306
e 295 297
e 295 307
e 295 309
e 296 308
e 297 307
e 297 309
e 298 299
e 298 300
e 298 310
e 298 311
e 298 312
e 299 300
e 299 310
e 299 311
e 299 312
e 300 310
e 300 311
e 300 312
e 301 302
e 301 303
e 301 313
e 301 314
e 301 315
e 302 303
e 302 313
e 302 314
e 302 315
e 303 313
e 303 314
e 303 315
e 304 306
e 307 309
e 307 316
e 307 318
e 308 317
e 309 316
e 309 318
e 310 311
e 310 312
e 310 319
e 310 320
e 310 321
e 311 312
e 311 319
e 311 320
e 311 321
e 312 319
e 312 320
e 312 321
e 313 314
e 313 315
e 313 322
e 313 323
e 313 324
e 314 315
e 314 322
e 314 323
e 314 324
e 315 322
e 315 323
e 315 324
e 316 318
e 316 325
e 316 327
e 317 326
e 318 325
e 318 327
e 319 320
e 319 321
e 319 328
e 319 329
e 319 330
e 320 321
e 320 328
e 320 329
e 320 330
e 321 328
e 321 329
e 321 330
e 322 323
e 322 324
e 322 331
e 322 332
e 322 333
e 323 324
e 323 331
e 323 332
e 323 333
e 324 331
e 324 332
e 324 333
e 325 327
e 325 334
e 325 336
e 326 335
e 327 334
e 327 336
e 328 329
e 328 330
e 328 337
e 328 338
e 328 339
e 329 330
e 329 337
e 329 338
e 329 339
e 330 337
e 330 338
e 330 339
e 331 332
e 331 333
e 331 340
e 331 341
e 331 342
e 332 333
e 332 340
e 332 341
e 332 342
e 333 340
e 333 341
e 333 342
e 334 336
e 334 343
e 334 345
e 335 344
e 336 343
e 336 345
e 337 338
e 337 339
e 337 346
e 337 347
e 337 348
e 338 339
e 338 346
e 338 347
e 338 348
e 339 346
e 339 347
e 339 348
e 340 341
e 340 342
e 340 349
e 340 350
e 340 351
e 341 342
e 341 349
e 341 350
e 341 351
e 342 349
e 342 350
e 342 351
e 343 345
e 343 352
e 343 354
e 344 353
e 345 352
e 345 354
e 346 347
e 346 348
e 346 355
e 346 356
e 346 357
e 347 348
e 347 355
e 347 356
e 347 357
e 348 355
e 348 356
e 348 357
e 349 350
e 349 351
e 349 358
e 349 359
e 349 360
e 350 351
e 350 358
e 350 359
e 350 360
e 351 358
e 351 359
e 351 360
e 352 354
e 352 361
e 352 363
e 353 362
e 354 361
e 354 363
e 355 356
e 355 357
e 355 364
e 355 365
e 355 366
e 356 357
e 356 364
e 356 365
e 356 366
e 357 364
e 357 365
e 357 366
e 358 359
e 358 360
e 358 367
e 358 368
e 358 369
e 359 360
e 359 367
e 359 368
e 359 369
e 360 367
e 360 368
e 360 369
e 361 363
e 361 370
e 361 372
e 362 371
e 363 370
e 363 372
e 364 365
e 364 366
e 364 373
e 364 374
e 364 375
e 365 366
e 365 373
e 365 374
e 365 375
e 366 373
e 366 374
e 366 375
e 367 368
e 367 369
e 367 376
e 367 377
e 367 378
e 368 369
e 368 376
e 368 377
e 368 378
e 369 376
e 369 377
e 369 378
e 370 372
e 370 379
e 370 381
e 371 380
e 372 379
e 372 381
e 373 374
e 373 375
e 373 382
e 373 383
e 373 384
e 374 375
e 374 382
e 374 383
e 374 384
e 375 382
e 375 383
e 375 384
e 376 377
e 376 378
e 376 385
e 376 386
e 376 387
e 377 378
e 377 385
e 377 386
e 377 387
e 378 385
e 378 386
e 378 387
e 379 381
e 379 388
e 379 390
e 380 389
e 381 388
e 381 390
e 382 383
e 382 384
e 382 391
e 382 392
e 382 393
e 383 384
e 383 391
e 383 392
e 383 393
e 384 391
e 384 392
e 384 393
e 385 386
e 385 387
e 385 394
e 385 395
e 385 396
e 386 387
e 386 394
e 386 395
e 386 396
e 387 394
e 387 395
e 387 396
e 388 390
e 388 397
e 388 399
e 389 398
e 390 397
e 390 399
e 391 392
e 391 393
e 391 400
e 391 401
e 391 402
e 392 393
e 392 400
e 392 401
e 392 402
e 393 400
e 393 401
e 393 402
e 394 395
e 394 396
e 394 403
e 395 396
e 395 403
e 396 403
e 397 399
e 397 404
e 397 406
e 398 405
e 399 404
e 399 406
e 400 401
e 400 402
e 400 407
e 400 408
e 400 409
e 401 402
e 401 407
e 401 408
e 401 409
e 402 407
e 402 408
e 402 409
e 403 410
e 403 413
e 404 406
e 404 416
e 404 418
e 405 417
e 406 416
e 406 418
e 407 408
e 407 409
e 407 419
e 407 420
e 407 421
e 408 409
e 408 419
e 408 420
e 408 421
e 409 419
e 409 420
e 409 421
e 411 412
e 413 422
e 414 415
e 414 423
e 414 424
e 415 423
e 415 424
e 416 418
e 416 425
e 416 427
e 417 426
e 418 425
e 418 427
e 419 420
e 419 421
e 419 428
e 419 429
e 419 430
e 420 421
e 420 428
e 420 429
e 420 430
e 421 428
e 421 429
e 421 430
e 422 431
e 423 424
e 423 432
e 423 433
e 424 432
e 424 433
e 425 427
e 425 434
e 425 436
e 426 435
e 427 434
e 427 436
e 428 429
e 428 430
e 428 437
e 428 438
e 428 439
e 429 430
e 429 437
e 429 438
e 429 439
e 430 437
e 430 438
e 430 439
e 431 440
e 432 441
e 432 442
e 433 441
e 433 442
e 434 436
e 434 443
e 434 445
e 435 444
e 436 443
e 436 445
e 437 438
e 437 439
e 437 446
e 437 447
e 437 448
e 438 439
e 438 446
e 438 447
e 438 448
e 439 446
e 439 447
e 439 448
e 440 449
e 441 450
e 441 451
e 442 450
e 442 451
e 443 445
e 443 452
e 443 454
e 444 453
e 445 452
e 445 454
e 446 447
e 446 448
e 446 455
e 446 456
e 446 457
e 447 448
e 447 455
e 447 456
e 447 457
e 448 455
e 448 456
e 448 457
e 449 458
e 450 459
e 450 460
e 451 459
e 451 460
e 452 454
e 452 461
e 452 463
e 453 462
e 454 461
e 454 463
e 455 456
e 455 457
e 455 464
e 456 457
e 456 464
e 457 464
e 458 465
e 459 460
e 459 466
e 459 467
e 460 466
e 460 467
e 461 463
e 461 468
e 461 470
e 462 469
e 463 468
e 463 470
e 464 465
e 464 471
e 466 467
e 468 470
e 468 474
e 468 476
e 469 475
e 470 474
e 470 476
e 472 473
e 474 476
e 474 477
e 474 479
e 475 478
e 476 477
e 476 479
e 477 479
e 477 480
e 477 482
e 478 481
e 479 480
e 479 482
e 480 482
e 480 483
e 480 485
e 481 484
e 482 483
e 482 485
e 483 485
